111616 100 1100 79 139 198 157 124 191 177 125 113 96 182 190 159 87 85 181 135 140 186 197 162 114 190 114 122 78 70 128 172 193 72 85 137 181 120 185 89 142 74 95 106 170 146 74 108 168 105 100 199 121 70 134 170 117 184 82 86 78 164 97 112 161 190 99 84 90 97 88 115 106 85 131 75 77 131 184 159 194 160 78 177 119 157 130 77 177 123 92 105 177 146 74 135 174 187 76 178 161 167 131 68 117 148 113 111 145 139 95 68 80 146 135 126 68 75 115 125 109 141 146 113 82 147 104 111 76 60 117 129 141 61 87 94 142 97 140 75 110 73 70 80 138 92 72 86 134 96 83 149 84 60 120 130 83 140 65 70 66 128 70 84 120 139 88 67 70 81 73 93 91 65 102 73 71 76 142 125 144 113 77 139 119 116 106 72 131 91 69 80 120 116 62 112 139 141 60 144 104 133 97
